1	9	1	8	29	100	0	0	0	0	0	0
2000	1	0	0	0	0	0	0	0	0	0	0
250	1	0	265.71	0.11	1	0	0	0	0	0	0
250	1	0	265.71	0.11	1	0	0	0	0	0	0
250	1	0	265.71	0.11	1	0	0	0	0	0	0
250	1	0	265.71	0.11	1	0	0	0	0	0	0
250	1	0	265.71	0.11	1	0	0	0	0	0	0
250	1	0	265.71	0.11	1	0	0	0	0	0	0
250	1	0	265.71	0.11	1	0	0	0	0	0	0
250	1	0	265.71	0.11	1	0	0	0	0	0	0
250	1	0	265.71	0.11	1	0	0	0	0	0	0
50	150	0	0	0	0	1000	0	0	99999	0	0
25	25	0	0	0	0	1000	0	0	99999	0	0
50	25	0	0	0	0	1000	0	0	99999	0	0
75	25	0	0	0	0	1000	0	0	99999	0	0
25	50	0	0	0	0	1000	0	0	99999	0	0
75	50	0	0	0	0	1000	0	0	99999	0	0
25	75	0	0	0	0	1000	0	0	99999	0	0
50	75	0	0	0	0	1000	0	0	99999	0	0
75	75	0	0	0	0	1000	0	0	99999	0	0
25	25	0	0	0	0	1000	0	0	0	0	0
50	25	0	0	0	0	1000	0	0	0	0	0
75	25	0	0	0	0	1000	0	0	0	0	0
25	50	0	0	0	0	1000	0	0	0	0	0
75	50	0	0	0	0	1000	0	0	0	0	0
25	75	0	0	0	0	1000	0	0	0	0	0
50	75	0	0	0	0	1000	0	0	0	0	0
75	75	0	0	0	0	1000	0	0	0	0	0
35      35      0       0       0       0       230     0       0       0       0       0
61      37      0       0       0       0       230     0       0       0       0       0
74      39      0       0       0       0       230     0       0       0       0       0
47      57      0       0       0       0       230     0       0       0       0       0
57      65      0       0       0       0       230     0       0       0       0       0
29      59      0       0       0       0       230     0       0       0       0       0
34      71      0       0       0       0       230     0       0       0       0       0
22      58      0       0       0       0       230     0       0       0       0       0
7	61	0	0	0	0	1000	0	0	0	0	0
18	41	0	0	0	0	1000	0	0	0	0	0
5	39	0	0	0	0	1000	0	0	0	0	0
14	20	0	0	0	0	1000	0	0	0	0	0
0	26	0	0	0	0	1000	0	0	0	0	0
24	25	0	0	0	0	1000	0	0	0	0	0
26	6	0	0	0	0	1000	0	0	0	0	0
34	20	0	0	0	0	1000	0	0	0	0	0
41	5	0	0	0	0	1000	0	0	0	0	0
50	9	0	0	0	0	1000	0	0	0	0	0
61	14	0	0	0	0	1000	0	0	0	0	0
62	21	0	0	0	0	1000	0	0	0	0	0
74	30	0	0	0	0	1000	0	0	0	0	0
41	49	10	8	2	132	542	10	0	0	0	0
35	17	7	3	4	134	653	10	0	0	0	0
55	45	13	11	2	459	1083	10	0	0	0	0
55	20	19	7	12	684	1081	10	0	0	0	0
15	30	26	13	13	137	679	10	0	0	0	0
25	30	3	3	0	484	1012	10	0	0	0	0
20	50	5	2	3	138	537	10	0	0	0	0
10	43	9	2	7	143	621	10	0	0	0	0
55	60	16	15	1	490	1000	10	0	0	0	0
30	60	16	8	8	531	977	10	0	0	0	0
20	65	12	4	8	600	1072	10	0	0	0	0
50	35	19	13	6	684	1091	10	0	0	0	0
30	25	23	19	4	128	600	10	0	0	0	0
15	10	20	13	7	149	638	10	0	0	0	0
30	5	8	1	7	643	1075	10	0	0	0	0
10	20	19	10	9	462	962	10	0	0	0	0
5	30	2	0	2	633	1075	10	0	0	0	0
20	40	12	6	6	347	801	10	0	0	0	0
15	60	17	4	13	170	658	10	0	0	0	0
45	65	9	6	3	631	1049	10	0	0	0	0
45	20	11	5	6	135	651	10	0	0	0	0
45	10	18	4	14	606	1079	10	0	0	0	0
55	5	29	3	26	153	727	10	0	0	0	0
65	35	3	2	1	622	1076	10	0	0	0	0
65	20	6	2	4	150	609	10	0	0	0	0
45	30	17	11	6	128	597	10	0	0	0	0
35	40	16	14	2	218	790	10	0	0	0	0
41	37	16	14	2	292	792	10	0	0	0	0
64	42	9	6	3	619	1076	10	0	0	0	0
40	60	21	14	7	465	915	10	0	0	0	0
31	52	27	16	11	444	1088	10	0	0	0	0
35	69	23	12	11	368	838	10	0	0	0	0
53	52	11	11	0	176	714	10	0	0	0	0
65	55	14	12	2	153	639	10	0	0	0	0
63	65	8	8	0	509	1064	10	0	0	0	0
2	60	5	0	5	585	1064	10	0	0	0	0
20	20	8	8	0	419	991	10	0	0	0	0
5	5	16	16	0	518	1034	10	0	0	0	0
60	12	31	6	25	211	745	10	0	0	0	0
40	25	9	6	3	664	1094	10	0	0	0	0
42	7	5	1	4	589	1077	10	0	0	0	0
24	12	5	3	2	142	547	10	0	0	0	0
23	3	7	1	6	301	871	10	0	0	0	0
11	14	18	14	4	514	1010	10	0	0	0	0
6	38	16	3	13	499	1076	10	0	0	0	0
2	48	1	0	1	152	650	10	0	0	0	0
8	56	27	4	23	551	1063	10	0	0	0	0
13	52	36	9	27	352	856	10	0	0	0	0
6	68	30	3	27	586	1062	10	0	0	0	0
47	47	13	13	0	458	880	10	0	0	0	0
49	58	10	8	2	590	1079	10	0	0	0	0
27	43	9	6	3	159	697	10	0	0	0	0
37	31	14	12	2	326	810	10	0	0	0	0
57	29	18	9	9	139	612	10	0	0	0	0
63	23	2	1	1	341	901	10	0	0	0	0
53	12	6	1	5	549	1076	10	0	0	0	0
32	12	7	3	4	413	877	10	0	0	0	0
36	26	18	13	5	341	805	10	0	0	0	0
21	24	28	25	3	134	608	10	0	0	0	0
17	34	3	2	1	525	1017	10	0	0	0	0
12	24	13	7	6	232	880	10	0	0	0	0
24	58	19	8	11	603	1080	10	0	0	0	0
27	69	10	4	6	522	1071	10	0	0	0	0
15	77	9	2	7	619	1059	10	0	0	0	0
62	77	20	16	4	166	605	10	0	0	0	0
49	73	25	17	8	532	1054	10	0	0	0	0
67	5	25	2	23	160	647	10	0	0	0	0
56	39	36	25	11	249	767	10	0	0	0	0
37	47	6	5	1	407	885	10	0	0	0	0
37	56	5	3	2	138	570	10	0	0	0	0
57	68	15	13	2	654	1066	10	0	0	0	0
47	16	25	9	16	139	657	10	0	0	0	0
44	17	9	3	6	679	1085	10	0	0	0	0
46	13	8	2	6	405	831	10	0	0	0	0
49	11	18	4	14	486	918	10	0	0	0	0
49	42	13	11	2	159	645	10	0	0	0	0
53	43	14	11	3	136	637	10	0	0	0	0
61	52	3	3	0	148	722	10	0	0	0	0
57	48	23	19	4	142	618	10	0	0	0	0
56	37	6	4	2	138	682	10	0	0	0	0
55	54	26	26	0	144	596	10	0	0	0	0
15	47	16	5	11	637	1082	10	0	0	0	0
14	37	11	4	7	482	972	10	0	0	0	0
11	31	7	2	5	249	745	10	0	0	0	0
16	22	41	30	11	466	1062	10	0	0	0	0
4	18	35	8	27	688	1070	10	0	0	0	0
28	18	26	17	9	501	829	10	0	0	0	0
26	52	9	5	4	250	764	10	0	0	0	0
26	35	15	11	4	483	1001	10	0	0	0	0
31	67	3	1	2	479	921	10	0	0	0	0
15	19	1	1	0	391	921	10	0	0	0	0
22	22	2	2	0	143	711	10	0	0	0	0
18	24	22	17	5	521	919	10	0	0	0	0
26	27	27	26	1	479	929	10	0	0	0	0
25	24	20	19	1	131	678	10	0	0	0	0
22	27	11	9	2	700	1090	10	0	0	0	0
25	21	12	10	2	525	909	10	0	0	0	0
19	21	10	9	1	367	831	10	0	0	0	0
20	26	9	7	2	134	555	10	0	0	0	0
18	18	17	17	0	141	454	10	0	0	0	0
